C  O  H                                 
   1.00000000000000     
    17.0060596466000007    0.0000000000000000    0.0000000000000000
     0.0000000000000000   25.4978370667000007    0.0000000000000000
     0.0000000000000000    0.0000000000000000   34.0448913573999974
   O    C    H 
     2     6    12
Direct
  0.5209869566847488  0.3544481430309928  0.4668214491294705
  0.5255377510023416  0.3093469726346054  0.5230874743522876
  0.5209293910968260  0.3556122302778965  0.5024309784123595
  0.5161134956946440  0.4049865123530412  0.5273656434320595
  0.5112536805314022  0.4552680566537981  0.5031260927659857
  0.5063674620202073  0.5048924958904667  0.5282502327649051
  0.5015328978777037  0.5550150272578792  0.5035907962284660
  0.4966617709193234  0.6049828135017888  0.5282912021541932
  0.5679263069803109  0.4058956183853874  0.5469298738966055
  0.4644882995952374  0.4014258582623402  0.5468858696310221
  0.4598044827629212  0.4528916690963674  0.4835728730820667
  0.5627469345206902  0.4573588526640524  0.4835864733529547
  0.5580737829105973  0.5072074006986410  0.5478161070654427
  0.4545921848840042  0.5027227816109191  0.5477786793867980
  0.4499282127843831  0.5525331521054869  0.4840502351642956
  0.5532110071765749  0.5569850940581226  0.4840657754342454
  0.4444167540733057  0.6046350715867743  0.5473560265339672
  0.4932498243869496  0.6402105916993358  0.5097674394342470
  0.5485301951210116  0.6091356653599891  0.5473612788774711
  0.5247475243408986  0.3166038176580522  0.5512469580519505
 
  0.00000000E+00  0.00000000E+00  0.00000000E+00
  0.00000000E+00  0.00000000E+00  0.00000000E+00
  0.00000000E+00  0.00000000E+00  0.00000000E+00
  0.00000000E+00  0.00000000E+00  0.00000000E+00
  0.00000000E+00  0.00000000E+00  0.00000000E+00
  0.00000000E+00  0.00000000E+00  0.00000000E+00
  0.00000000E+00  0.00000000E+00  0.00000000E+00
  0.00000000E+00  0.00000000E+00  0.00000000E+00
  0.00000000E+00  0.00000000E+00  0.00000000E+00
  0.00000000E+00  0.00000000E+00  0.00000000E+00
  0.00000000E+00  0.00000000E+00  0.00000000E+00
  0.00000000E+00  0.00000000E+00  0.00000000E+00
  0.00000000E+00  0.00000000E+00  0.00000000E+00
  0.00000000E+00  0.00000000E+00  0.00000000E+00
  0.00000000E+00  0.00000000E+00  0.00000000E+00
  0.00000000E+00  0.00000000E+00  0.00000000E+00
  0.00000000E+00  0.00000000E+00  0.00000000E+00
  0.00000000E+00  0.00000000E+00  0.00000000E+00
  0.00000000E+00  0.00000000E+00  0.00000000E+00
  0.00000000E+00  0.00000000E+00  0.00000000E+00
